sat

(objectives
 ((bvadd PriceProv10 (bvadd PriceProv9 (bvadd PriceProv8 (bvadd PriceProv7 (bvadd PriceProv6 (bvadd PriceProv5 (bvadd PriceProv4 (bvadd PriceProv3 (bvadd PriceProv1 PriceProv2))))))))) (_ bv1654 32))
)
;; statistics
(
 :cnf-variables 3907
 :cnf-literals 18364
 :cnf-clauses 7749
 :sat-checks 14
 :sat-restarts 107
 :sat-decisions 695137
 :sat-random-decisions 358
 :sat-propagations 1469308395
 :sat-theory-propagations 0
 :sat-watched-clauses-visited 2846195990
 :sat-binary-watched-clauses-visited 1067358465
 :sat-conflicts 381546
 :sat-theory-conflicts 0
 :theory-necessary-interface-equalities 0
 :theory-extra-interface-equalities 0
 :euf-total-calls 712024
 :euf-complete-calls 14
 :euf-conflicts 0
 :euf-implications 0
 :euf-explanations 0
 :euf-egraph-nodes-created 95538
 :euf-egraph-nodes-deleted 89452
 :euf-num-asserted-equalities 24217755
 :euf-num-asserted-inequalities 17236599
 :euf-num-merges 45160610
 :euf-num-merges-undone 45160610
 :euf-num-atoms-retold 21408
 :la-total-calls 712024
 :la-complete-calls 14
 :la-conflicts 0
 :la-implications 0
 :la-explanations 0
 :la-num-equalities-split 0
 :la-num-tableau-rows 0
 :la-num-tableau-variables 0
 :bv-total-calls 712024
 :bv-complete-calls 14
 :bv-conflicts 0
 :bv-implications 0
 :bv-explanations 0
 :fp-total-calls 712024
 :fp-complete-calls 14
 :fp-conflicts 0
 :fp-implications 0
 :fp-explanations 0
 :arr-total-calls 712024
 :arr-complete-calls 14
 :arr-conflicts 0
 :arr-implications 0
 :arr-explanations 0
 :arr-write-lemmas-added 0
 :arr-row-lemmas-added 0
 :arr-ext-lemmas-added 0
 :arr-const-lemmas-added 0
 :na-total-calls 712024
 :na-complete-calls 14
 :na-conflicts 0
 :na-implications 0
 :na-explanations 0
 :na-num_nonlinear_multiplications 0
 :na-num_axiom_checks 0
 :na-num_zero_lemmas 0
 :na-num_sign_lemmas 0
 :na-num_neutral_lemmas 0
 :na-num_proportionality_lemmas 0
 :na-num_bound_lemmas 0
 :na-num_tangent_lemmas 0
 :na-num_monotonicity_lemmas 0
 :na-num_sat_checks 0
 :na-axiom_check_time 0.000
 :na-sat_check_time 0.000
 :time-seconds 450.126
 :memory-mb 566.416
)
